%chk=Q1H-DON-H4.chk
%nproc=4
%mem=4GB
# HF/6-31G* Opt=(Z-matrix,MaxCycles=100) Geom=PrintInputOrient

<qmtool> simtype="Geometry optimization" </qmtool>
Q1H-DON-H4

-1 2
C1 -0.22699999809265137 -1.531000018119812 -0.656000018119812
C2 0.2840000092983246 -2.9119999408721924 -0.9819999933242798
C3 -1.6100000143051147 -1.4620000123977661 -0.1850000023841858
O4 -2.3350000381469727 -2.4830000400543213 -0.06599999964237213
C5 -2.118000030517578 -0.12999999523162842 0.12800000607967377
O6 -3.441999912261963 0.024000000208616257 0.5090000033378601
C7 -1.3279999494552612 0.9879999756813049 0.008999999612569809
O8 -1.8309999704360962 2.2200000286102295 0.3880000114440918
C9 0.03099999949336052 0.9350000023841858 -0.4970000088214874
O10 0.722000002861023 2.005000114440918 -0.6690000295639038
C11 0.5389999747276306 -0.39399999380111694 -0.7929999828338623
C12 1.972000002861023 -0.4300000071525574 -1.253999948501587
H13 1.0260000228881836 -3.260999917984009 -0.2540000081062317
H14 -0.5630000233650208 -3.6010000705718994 -0.9589999914169312
H15 0.7549999952316284 -2.947999954223633 -1.9700000286102295
C16 -3.750999927520752 -0.6349999904632568 1.7410000562667847
H17 -3.5380001068115234 -1.7020000219345093 1.6699999570846558
H18 -3.183000087738037 -0.18400000035762787 2.565999984741211
H19 -4.817999839782715 -0.46799999475479126 1.909000039100647
C20 -2.132999897003174 3.0239999294281006 -0.75
H21 -2.9059998989105225 2.5460000038146973 -1.3650000095367432
H22 -2.515000104904175 3.9719998836517334 -0.3610000014305115
H23 -1.2300000190734863 3.200000047683716 -1.340000033378601
H24 2.1019999980926514 -1.1749999523162842 -2.052999973297119
H25 2.2119998931884766 0.550000011920929 -1.6720000505447388
C26 2.8889999389648438 -0.7829999923706055 -0.11500000208616257
H27 2.880000114440918 -1.8339999914169312 0.17900000512599945
C28 3.763000011444092 1.534999966621399 0.3269999921321869
C29 3.6710000038146973 0.05299999937415123 0.5820000171661377
H30 4.676000118255615 1.784000039100647 -0.2329999953508377
H31 2.884999990463257 1.9040000438690186 -0.2070000022649765
C32 4.543000221252441 -0.460999995470047 1.6979999542236328
H33 4.449999809265137 -1.5460000038146973 1.8140000104904175
H34 5.598999977111816 -0.2240000069141388 1.5119999647140503
H35 4.2769999504089355 0.010999999940395355 2.6530001163482666
H36 3.821000099182129 2.071000099182129 1.281999945640564
  x      H18     1.0      C16   90.00      H19     dih
 Ow      H18     rAH        x   90.00      C16  180.00
H1w       Ow  0.9572      H18  127.74        x    0.00
H2w       Ow  0.9572      H18  127.74        x  180.00

rAH  2.0
dih  0.0
