%chk=Q1H-hess2.chk
%nproc=4
%mem=4GB
# MP2/6-31G* Geom=(AllCheck,ModRedundant) Freq NoSymm IOp(7/33=1) SCF=Tight Guess=Read

B * * K
A * * * K
L * * * K
D * * * * K
B 2 1 A 
B 3 1 A 
B 11 1 A 
B 13 2 A 
B 14 2 A 
B 15 2 A 
B 4 3 A 
B 5 3 A 
B 6 5 A 
B 7 5 A 
B 16 6 A 
B 8 7 A 
B 9 7 A 
B 20 8 A 
B 10 9 A 
B 11 9 A 
B 12 11 A 
B 24 12 A 
B 25 12 A 
B 26 12 A 
B 17 16 A 
B 18 16 A 
B 19 16 A 
B 21 20 A 
B 22 20 A 
B 23 20 A 
B 27 26 A 
B 29 26 A 
B 29 28 A 
B 30 28 A 
B 31 28 A 
B 36 28 A 
B 32 29 A 
B 33 32 A 
B 34 32 A 
B 35 32 A 
A 13 2 1 A 
A 14 2 1 A 
A 15 2 1 A 
A 4 3 1 A 
A 5 3 1 A 
A 9 11 1 A 
A 12 11 1 A 
A 3 1 2 A 
A 11 1 2 A 
A 11 1 3 A 
A 6 5 3 A 
A 7 5 3 A 
A 5 3 4 A 
A 16 6 5 A 
A 8 7 5 A 
A 9 7 5 A 
A 7 5 6 A 
A 17 16 6 A 
A 18 16 6 A 
A 19 16 6 A 
A 20 8 7 A 
A 10 9 7 A 
A 11 9 7 A 
A 9 7 8 A 
A 21 20 8 A 
A 22 20 8 A 
A 23 20 8 A 
A 12 11 9 A 
A 11 9 10 A 
A 24 12 11 A 
A 25 12 11 A 
A 26 12 11 A 
A 27 26 12 A 
A 29 26 12 A 
A 14 2 13 A 
A 15 2 13 A 
A 15 2 14 A 
A 18 16 17 A 
A 19 16 17 A 
A 19 16 18 A 
A 22 20 21 A 
A 23 20 21 A 
A 23 20 22 A 
A 25 12 24 A 
A 26 12 24 A 
A 26 12 25 A 
A 28 29 26 A 
A 32 29 26 A 
A 29 26 27 A 
A 32 29 28 A 
A 30 28 29 A 
A 31 28 29 A 
A 36 28 29 A 
A 33 32 29 A 
A 34 32 29 A 
A 35 32 29 A 
A 31 28 30 A 
A 36 28 30 A 
A 36 28 31 A 
A 34 32 33 A 
A 35 32 33 A 
A 35 32 34 A 
D 13 2 1 3 A 
D 14 2 1 3 A 
D 15 2 1 3 A 
D 13 2 1 11 A 
D 14 2 1 11 A 
D 15 2 1 11 A 
D 4 3 1 2 A 
D 5 3 1 2 A 
D 4 3 1 11 A 
D 5 3 1 11 A 
D 9 11 1 2 A 
D 12 11 1 2 A 
D 9 11 1 3 A 
D 12 11 1 3 A 
D 7 5 3 1 A 
D 6 5 3 1 A 
D 7 5 3 4 A 
D 6 5 3 4 A 
D 16 6 5 3 A 
D 16 6 5 7 A 
D 8 7 5 3 A 
D 9 7 5 3 A 
D 8 7 5 6 A 
D 9 7 5 6 A 
D 17 16 6 5 A 
D 18 16 6 5 A 
D 19 16 6 5 A 
D 20 8 7 5 A 
D 20 8 7 9 A 
D 10 9 7 5 A 
D 11 9 7 5 A 
D 10 9 7 8 A 
D 11 9 7 8 A 
D 21 20 8 7 A 
D 22 20 8 7 A 
D 23 20 8 7 A 
D 1 11 9 7 A 
D 12 11 9 7 A 
D 1 11 9 10 A 
D 12 11 9 10 A 
D 24 12 11 1 A 
D 25 12 11 1 A 
D 26 12 11 1 A 
D 24 12 11 9 A 
D 25 12 11 9 A 
D 26 12 11 9 A 
D 29 26 12 11 A 
D 27 26 12 11 A 
D 29 26 12 24 A 
D 27 26 12 24 A 
D 29 26 12 25 A 
D 27 26 12 25 A 
D 28 29 26 12 A 
D 32 29 26 12 A 
D 28 29 26 27 A 
D 32 29 26 27 A 
D 26 29 28 30 A 
D 32 29 28 30 A 
D 26 29 28 31 A 
D 32 29 28 31 A 
D 26 29 28 36 A 
D 32 29 28 36 A 
D 33 32 29 26 A 
D 34 32 29 26 A 
D 35 32 29 26 A 
D 33 32 29 28 A 
D 34 32 29 28 A 
D 35 32 29 28 A 

