%chk=Q1H.scan3.neg.chk
%nproc=4
%mem=4GB
# opt=modredundant MP2/6-31g(d) Geom=PrintInputOrient

Q1H Dihedral/Improper Scan

-1 2
C1 -0.1459999978542328 -1.472000002861023 -0.8399999737739563
C2 0.4169999957084656 -2.7980000972747803 -1.2760000228881836
C3 -1.524999976158142 -1.4880000352859497 -0.3709999918937683
O4 -2.2279999256134033 -2.5510001182556152 -0.34299999475479126
C5 -2.0420000553131104 -0.21299999952316284 0.1080000028014183
O6 -3.3529999256134033 -0.13099999725818634 0.5429999828338623
C7 -1.3170000314712524 0.9570000171661377 0.029999999329447746
O8 -1.8459999561309814 2.122999906539917 0.5569999814033508
C9 0.050999999046325684 0.9700000286102295 -0.4650000035762787
O10 0.7490000128746033 2.0269999504089355 -0.48100000619888306
C11 0.5720000267028809 -0.2980000078678131 -0.9580000042915344
C12 1.9859999418258667 -0.2529999911785126 -1.4850000143051147
H13 1.3899999856948853 -2.990000009536743 -0.8100000023841858
H14 -0.29600000381469727 -3.572000026702881 -0.9850000143051147
H15 0.5569999814033508 -2.8519999980926514 -2.364000082015991
C16 -3.6019999980926514 -0.9620000123977661 1.680999994277954
H17 -3.368000030517578 -2.000999927520752 1.4459999799728394
H18 -3.01200008392334 -0.6179999709129333 2.5409998893737793
H19 -4.664999961853027 -0.8460000157356262 1.9079999923706055
C20 -2.0460000038146973 3.121000051498413 -0.4440000057220459
H21 -2.756999969482422 2.7690000534057617 -1.2029999494552612
H22 -2.4719998836517334 3.984999895095825 0.0729999989271164
H23 -1.097000002861023 3.3940000534057617 -0.9110000133514404
H24 2.1419999599456787 -1.0420000553131104 -2.2260000705718994
H25 2.122999906539917 0.7179999947547913 -1.9780000448226929
C26 2.9609999656677246 -0.3499999940395355 -0.3449999988079071
H27 2.806999921798706 0.41600000858306885 0.41600000858306885
C28 4.304999828338623 -2.3580000400543213 -1.1059999465942383
C29 3.946000099182129 -1.2489999532699585 -0.15299999713897705
H30 4.229000091552734 -3.3329999446868896 -0.609000027179718
H31 3.6630001068115234 -2.378000020980835 -1.9869999885559082
C32 4.798999786376953 -1.1970000267028809 1.0880000591278076
H33 4.500999927520752 -0.36899998784065247 1.7380000352859497
H34 4.7170000076293945 -2.128999948501587 1.6610000133514404
H35 5.861000061035156 -1.0729999542236328 0.8360000252723694
H36 5.34499979019165 -2.253999948501587 -1.4429999589920044

D 1 3 5 7 S 18 -5.000000
